clingo version 5.3.0
Reading from ..._y6_n66_r5_s16_ps1_pr16_u16_o5_N001.lp ...
Solving...
Answer: 1
assign(robot(1),shelf(13)). assign(robot(2),shelf(14)). assign(robot(3),shelf(15)). assign(robot(4),shelf(12)). assign(robot(5),shelf(1)).
Answer: 2
assign(robot(1),shelf(14)). assign(robot(2),shelf(13)). assign(robot(3),shelf(15)). assign(robot(4),shelf(12)). assign(robot(5),shelf(1)).
Answer: 3
assign(robot(1),shelf(14)). assign(robot(2),shelf(12)). assign(robot(3),shelf(15)). assign(robot(4),shelf(13)). assign(robot(5),shelf(1)).
Answer: 4
assign(robot(1),shelf(12)). assign(robot(2),shelf(14)). assign(robot(3),shelf(15)). assign(robot(4),shelf(13)). assign(robot(5),shelf(1)).
Answer: 5
assign(robot(1),shelf(13)). assign(robot(2),shelf(12)). assign(robot(3),shelf(15)). assign(robot(4),shelf(14)). assign(robot(5),shelf(1)).
Answer: 6
assign(robot(1),shelf(12)). assign(robot(2),shelf(13)). assign(robot(3),shelf(15)). assign(robot(4),shelf(14)). assign(robot(5),shelf(1)).
Answer: 7
assign(robot(1),shelf(13)). assign(robot(2),shelf(14)). assign(robot(3),shelf(12)). assign(robot(4),shelf(15)). assign(robot(5),shelf(1)).
Answer: 8
assign(robot(1),shelf(14)). assign(robot(2),shelf(13)). assign(robot(3),shelf(12)). assign(robot(4),shelf(15)). assign(robot(5),shelf(1)).
Answer: 9
assign(robot(1),shelf(15)). assign(robot(2),shelf(14)). assign(robot(3),shelf(12)). assign(robot(4),shelf(13)). assign(robot(5),shelf(1)).
Answer: 10
assign(robot(1),shelf(15)). assign(robot(2),shelf(13)). assign(robot(3),shelf(12)). assign(robot(4),shelf(14)). assign(robot(5),shelf(1)).
Answer: 11
assign(robot(1),shelf(14)). assign(robot(2),shelf(15)). assign(robot(3),shelf(12)). assign(robot(4),shelf(13)). assign(robot(5),shelf(1)).
Answer: 12
assign(robot(1),shelf(13)). assign(robot(2),shelf(15)). assign(robot(3),shelf(12)). assign(robot(4),shelf(14)). assign(robot(5),shelf(1)).
Answer: 13
assign(robot(1),shelf(12)). assign(robot(2),shelf(13)). assign(robot(3),shelf(14)). assign(robot(4),shelf(15)). assign(robot(5),shelf(1)).
Answer: 14
assign(robot(1),shelf(12)). assign(robot(2),shelf(14)). assign(robot(3),shelf(13)). assign(robot(4),shelf(15)). assign(robot(5),shelf(1)).
Answer: 15
assign(robot(1),shelf(13)). assign(robot(2),shelf(12)). assign(robot(3),shelf(14)). assign(robot(4),shelf(15)). assign(robot(5),shelf(1)).
Answer: 16
assign(robot(1),shelf(14)). assign(robot(2),shelf(12)). assign(robot(3),shelf(13)). assign(robot(4),shelf(15)). assign(robot(5),shelf(1)).
Answer: 17
assign(robot(1),shelf(15)). assign(robot(2),shelf(13)). assign(robot(3),shelf(14)). assign(robot(4),shelf(12)). assign(robot(5),shelf(1)).
Answer: 18
assign(robot(1),shelf(15)). assign(robot(2),shelf(14)). assign(robot(3),shelf(13)). assign(robot(4),shelf(12)). assign(robot(5),shelf(1)).
Answer: 19
assign(robot(1),shelf(13)). assign(robot(2),shelf(15)). assign(robot(3),shelf(14)). assign(robot(4),shelf(12)). assign(robot(5),shelf(1)).
Answer: 20
assign(robot(1),shelf(14)). assign(robot(2),shelf(15)). assign(robot(3),shelf(13)). assign(robot(4),shelf(12)). assign(robot(5),shelf(1)).
Answer: 21
assign(robot(1),shelf(15)). assign(robot(2),shelf(12)). assign(robot(3),shelf(14)). assign(robot(4),shelf(13)). assign(robot(5),shelf(1)).
Answer: 22
assign(robot(1),shelf(15)). assign(robot(2),shelf(12)). assign(robot(3),shelf(13)). assign(robot(4),shelf(14)). assign(robot(5),shelf(1)).
Answer: 23
assign(robot(1),shelf(12)). assign(robot(2),shelf(15)). assign(robot(3),shelf(14)). assign(robot(4),shelf(13)). assign(robot(5),shelf(1)).
Answer: 24
assign(robot(1),shelf(12)). assign(robot(2),shelf(15)). assign(robot(3),shelf(13)). assign(robot(4),shelf(14)). assign(robot(5),shelf(1)).
Answer: 25
assign(robot(1),shelf(13)). assign(robot(2),shelf(14)). assign(robot(3),shelf(15)). assign(robot(4),shelf(1)). assign(robot(5),shelf(12)).
Answer: 26
assign(robot(1),shelf(14)). assign(robot(2),shelf(13)). assign(robot(3),shelf(15)). assign(robot(4),shelf(1)). assign(robot(5),shelf(12)).
Answer: 27
assign(robot(1),shelf(14)). assign(robot(2),shelf(1)). assign(robot(3),shelf(15)). assign(robot(4),shelf(13)). assign(robot(5),shelf(12)).
Answer: 28
assign(robot(1),shelf(13)). assign(robot(2),shelf(1)). assign(robot(3),shelf(15)). assign(robot(4),shelf(14)). assign(robot(5),shelf(12)).
Answer: 29
assign(robot(1),shelf(13)). assign(robot(2),shelf(14)). assign(robot(3),shelf(1)). assign(robot(4),shelf(15)). assign(robot(5),shelf(12)).
Answer: 30
assign(robot(1),shelf(14)). assign(robot(2),shelf(13)). assign(robot(3),shelf(1)). assign(robot(4),shelf(15)). assign(robot(5),shelf(12)).
Answer: 31
assign(robot(1),shelf(13)). assign(robot(2),shelf(1)). assign(robot(3),shelf(14)). assign(robot(4),shelf(15)). assign(robot(5),shelf(12)).
Answer: 32
assign(robot(1),shelf(14)). assign(robot(2),shelf(1)). assign(robot(3),shelf(13)). assign(robot(4),shelf(15)). assign(robot(5),shelf(12)).
Answer: 33
assign(robot(1),shelf(15)). assign(robot(2),shelf(13)). assign(robot(3),shelf(14)). assign(robot(4),shelf(1)). assign(robot(5),shelf(12)).
Answer: 34
assign(robot(1),shelf(15)). assign(robot(2),shelf(14)). assign(robot(3),shelf(13)). assign(robot(4),shelf(1)). assign(robot(5),shelf(12)).
Answer: 35
assign(robot(1),shelf(15)). assign(robot(2),shelf(14)). assign(robot(3),shelf(1)). assign(robot(4),shelf(13)). assign(robot(5),shelf(12)).
Answer: 36
assign(robot(1),shelf(15)). assign(robot(2),shelf(1)). assign(robot(3),shelf(14)). assign(robot(4),shelf(13)). assign(robot(5),shelf(12)).
Answer: 37
assign(robot(1),shelf(15)). assign(robot(2),shelf(13)). assign(robot(3),shelf(1)). assign(robot(4),shelf(14)). assign(robot(5),shelf(12)).
Answer: 38
assign(robot(1),shelf(15)). assign(robot(2),shelf(1)). assign(robot(3),shelf(13)). assign(robot(4),shelf(14)). assign(robot(5),shelf(12)).
Answer: 39
assign(robot(1),shelf(13)). assign(robot(2),shelf(15)). assign(robot(3),shelf(14)). assign(robot(4),shelf(1)). assign(robot(5),shelf(12)).
Answer: 40
assign(robot(1),shelf(14)). assign(robot(2),shelf(15)). assign(robot(3),shelf(13)). assign(robot(4),shelf(1)). assign(robot(5),shelf(12)).
Answer: 41
assign(robot(1),shelf(14)). assign(robot(2),shelf(15)). assign(robot(3),shelf(1)). assign(robot(4),shelf(13)). assign(robot(5),shelf(12)).
Answer: 42
assign(robot(1),shelf(13)). assign(robot(2),shelf(15)). assign(robot(3),shelf(1)). assign(robot(4),shelf(14)). assign(robot(5),shelf(12)).
Answer: 43
assign(robot(1),shelf(14)). assign(robot(2),shelf(1)). assign(robot(3),shelf(15)). assign(robot(4),shelf(12)). assign(robot(5),shelf(13)).
Answer: 44
assign(robot(1),shelf(14)). assign(robot(2),shelf(12)). assign(robot(3),shelf(15)). assign(robot(4),shelf(1)). assign(robot(5),shelf(13)).
Answer: 45
assign(robot(1),shelf(12)). assign(robot(2),shelf(14)). assign(robot(3),shelf(15)). assign(robot(4),shelf(1)). assign(robot(5),shelf(13)).
Answer: 46
assign(robot(1),shelf(12)). assign(robot(2),shelf(1)). assign(robot(3),shelf(15)). assign(robot(4),shelf(14)). assign(robot(5),shelf(13)).
Answer: 47
assign(robot(1),shelf(14)). assign(robot(2),shelf(1)). assign(robot(3),shelf(12)). assign(robot(4),shelf(15)). assign(robot(5),shelf(13)).
Answer: 48
assign(robot(1),shelf(15)). assign(robot(2),shelf(14)). assign(robot(3),shelf(12)). assign(robot(4),shelf(1)). assign(robot(5),shelf(13)).
Answer: 49
assign(robot(1),shelf(15)). assign(robot(2),shelf(1)). assign(robot(3),shelf(12)). assign(robot(4),shelf(14)). assign(robot(5),shelf(13)).
Answer: 50
assign(robot(1),shelf(14)). assign(robot(2),shelf(15)). assign(robot(3),shelf(12)). assign(robot(4),shelf(1)). assign(robot(5),shelf(13)).
Answer: 51
assign(robot(1),shelf(14)). assign(robot(2),shelf(12)). assign(robot(3),shelf(1)). assign(robot(4),shelf(15)). assign(robot(5),shelf(13)).
Answer: 52
assign(robot(1),shelf(12)). assign(robot(2),shelf(14)). assign(robot(3),shelf(1)). assign(robot(4),shelf(15)). assign(robot(5),shelf(13)).
Answer: 53
assign(robot(1),shelf(12)). assign(robot(2),shelf(1)). assign(robot(3),shelf(14)). assign(robot(4),shelf(15)). assign(robot(5),shelf(13)).
Answer: 54
assign(robot(1),shelf(15)). assign(robot(2),shelf(14)). assign(robot(3),shelf(1)). assign(robot(4),shelf(12)). assign(robot(5),shelf(13)).
Answer: 55
assign(robot(1),shelf(15)). assign(robot(2),shelf(1)). assign(robot(3),shelf(14)). assign(robot(4),shelf(12)). assign(robot(5),shelf(13)).
Answer: 56
assign(robot(1),shelf(14)). assign(robot(2),shelf(15)). assign(robot(3),shelf(1)). assign(robot(4),shelf(12)). assign(robot(5),shelf(13)).
Answer: 57
assign(robot(1),shelf(15)). assign(robot(2),shelf(12)). assign(robot(3),shelf(14)). assign(robot(4),shelf(1)). assign(robot(5),shelf(13)).
Answer: 58
assign(robot(1),shelf(15)). assign(robot(2),shelf(12)). assign(robot(3),shelf(1)). assign(robot(4),shelf(14)). assign(robot(5),shelf(13)).
Answer: 59
assign(robot(1),shelf(12)). assign(robot(2),shelf(15)). assign(robot(3),shelf(14)). assign(robot(4),shelf(1)). assign(robot(5),shelf(13)).
Answer: 60
assign(robot(1),shelf(12)). assign(robot(2),shelf(15)). assign(robot(3),shelf(1)). assign(robot(4),shelf(14)). assign(robot(5),shelf(13)).
Answer: 61
assign(robot(1),shelf(13)). assign(robot(2),shelf(1)). assign(robot(3),shelf(15)). assign(robot(4),shelf(12)). assign(robot(5),shelf(14)).
Answer: 62
assign(robot(1),shelf(13)). assign(robot(2),shelf(12)). assign(robot(3),shelf(15)). assign(robot(4),shelf(1)). assign(robot(5),shelf(14)).
Answer: 63
assign(robot(1),shelf(12)). assign(robot(2),shelf(13)). assign(robot(3),shelf(15)). assign(robot(4),shelf(1)). assign(robot(5),shelf(14)).
Answer: 64
assign(robot(1),shelf(12)). assign(robot(2),shelf(1)). assign(robot(3),shelf(15)). assign(robot(4),shelf(13)). assign(robot(5),shelf(14)).
Answer: 65
assign(robot(1),shelf(13)). assign(robot(2),shelf(1)). assign(robot(3),shelf(12)). assign(robot(4),shelf(15)). assign(robot(5),shelf(14)).
Answer: 66
assign(robot(1),shelf(15)). assign(robot(2),shelf(13)). assign(robot(3),shelf(12)). assign(robot(4),shelf(1)). assign(robot(5),shelf(14)).
Answer: 67
assign(robot(1),shelf(15)). assign(robot(2),shelf(1)). assign(robot(3),shelf(12)). assign(robot(4),shelf(13)). assign(robot(5),shelf(14)).
Answer: 68
assign(robot(1),shelf(13)). assign(robot(2),shelf(15)). assign(robot(3),shelf(12)). assign(robot(4),shelf(1)). assign(robot(5),shelf(14)).
Answer: 69
assign(robot(1),shelf(13)). assign(robot(2),shelf(12)). assign(robot(3),shelf(1)). assign(robot(4),shelf(15)). assign(robot(5),shelf(14)).
Answer: 70
assign(robot(1),shelf(12)). assign(robot(2),shelf(13)). assign(robot(3),shelf(1)). assign(robot(4),shelf(15)). assign(robot(5),shelf(14)).
Answer: 71
assign(robot(1),shelf(12)). assign(robot(2),shelf(1)). assign(robot(3),shelf(13)). assign(robot(4),shelf(15)). assign(robot(5),shelf(14)).
Answer: 72
assign(robot(1),shelf(15)). assign(robot(2),shelf(13)). assign(robot(3),shelf(1)). assign(robot(4),shelf(12)). assign(robot(5),shelf(14)).
Answer: 73
assign(robot(1),shelf(15)). assign(robot(2),shelf(1)). assign(robot(3),shelf(13)). assign(robot(4),shelf(12)). assign(robot(5),shelf(14)).
Answer: 74
assign(robot(1),shelf(13)). assign(robot(2),shelf(15)). assign(robot(3),shelf(1)). assign(robot(4),shelf(12)). assign(robot(5),shelf(14)).
Answer: 75
assign(robot(1),shelf(15)). assign(robot(2),shelf(12)). assign(robot(3),shelf(13)). assign(robot(4),shelf(1)). assign(robot(5),shelf(14)).
Answer: 76
assign(robot(1),shelf(15)). assign(robot(2),shelf(12)). assign(robot(3),shelf(1)). assign(robot(4),shelf(13)). assign(robot(5),shelf(14)).
Answer: 77
assign(robot(1),shelf(12)). assign(robot(2),shelf(15)). assign(robot(3),shelf(13)). assign(robot(4),shelf(1)). assign(robot(5),shelf(14)).
Answer: 78
assign(robot(1),shelf(12)). assign(robot(2),shelf(15)). assign(robot(3),shelf(1)). assign(robot(4),shelf(13)). assign(robot(5),shelf(14)).
Answer: 79
assign(robot(1),shelf(13)). assign(robot(2),shelf(14)). assign(robot(3),shelf(12)). assign(robot(4),shelf(1)). assign(robot(5),shelf(15)).
Answer: 80
assign(robot(1),shelf(14)). assign(robot(2),shelf(13)). assign(robot(3),shelf(12)). assign(robot(4),shelf(1)). assign(robot(5),shelf(15)).
Answer: 81
assign(robot(1),shelf(14)). assign(robot(2),shelf(1)). assign(robot(3),shelf(12)). assign(robot(4),shelf(13)). assign(robot(5),shelf(15)).
Answer: 82
assign(robot(1),shelf(13)). assign(robot(2),shelf(1)). assign(robot(3),shelf(12)). assign(robot(4),shelf(14)). assign(robot(5),shelf(15)).
Answer: 83
assign(robot(1),shelf(13)). assign(robot(2),shelf(14)). assign(robot(3),shelf(1)). assign(robot(4),shelf(12)). assign(robot(5),shelf(15)).
Answer: 84
assign(robot(1),shelf(14)). assign(robot(2),shelf(13)). assign(robot(3),shelf(1)). assign(robot(4),shelf(12)). assign(robot(5),shelf(15)).
Answer: 85
assign(robot(1),shelf(13)). assign(robot(2),shelf(1)). assign(robot(3),shelf(14)). assign(robot(4),shelf(12)). assign(robot(5),shelf(15)).
Answer: 86
assign(robot(1),shelf(14)). assign(robot(2),shelf(1)). assign(robot(3),shelf(13)). assign(robot(4),shelf(12)). assign(robot(5),shelf(15)).
Answer: 87
assign(robot(1),shelf(13)). assign(robot(2),shelf(12)). assign(robot(3),shelf(14)). assign(robot(4),shelf(1)). assign(robot(5),shelf(15)).
Answer: 88
assign(robot(1),shelf(14)). assign(robot(2),shelf(12)). assign(robot(3),shelf(13)). assign(robot(4),shelf(1)). assign(robot(5),shelf(15)).
Answer: 89
assign(robot(1),shelf(12)). assign(robot(2),shelf(13)). assign(robot(3),shelf(14)). assign(robot(4),shelf(1)). assign(robot(5),shelf(15)).
Answer: 90
assign(robot(1),shelf(12)). assign(robot(2),shelf(14)). assign(robot(3),shelf(13)). assign(robot(4),shelf(1)). assign(robot(5),shelf(15)).
Answer: 91
assign(robot(1),shelf(14)). assign(robot(2),shelf(12)). assign(robot(3),shelf(1)). assign(robot(4),shelf(13)). assign(robot(5),shelf(15)).
Answer: 92
assign(robot(1),shelf(12)). assign(robot(2),shelf(14)). assign(robot(3),shelf(1)). assign(robot(4),shelf(13)). assign(robot(5),shelf(15)).
Answer: 93
assign(robot(1),shelf(12)). assign(robot(2),shelf(1)). assign(robot(3),shelf(14)). assign(robot(4),shelf(13)). assign(robot(5),shelf(15)).
Answer: 94
assign(robot(1),shelf(13)). assign(robot(2),shelf(12)). assign(robot(3),shelf(1)). assign(robot(4),shelf(14)). assign(robot(5),shelf(15)).
Answer: 95
assign(robot(1),shelf(12)). assign(robot(2),shelf(13)). assign(robot(3),shelf(1)). assign(robot(4),shelf(14)). assign(robot(5),shelf(15)).
Answer: 96
assign(robot(1),shelf(12)). assign(robot(2),shelf(1)). assign(robot(3),shelf(13)). assign(robot(4),shelf(14)). assign(robot(5),shelf(15)).
Answer: 97
assign(robot(1),shelf(1)). assign(robot(2),shelf(14)). assign(robot(3),shelf(15)). assign(robot(4),shelf(13)). assign(robot(5),shelf(12)).
Answer: 98
assign(robot(1),shelf(1)). assign(robot(2),shelf(13)). assign(robot(3),shelf(15)). assign(robot(4),shelf(14)). assign(robot(5),shelf(12)).
Answer: 99
assign(robot(1),shelf(1)). assign(robot(2),shelf(14)). assign(robot(3),shelf(15)). assign(robot(4),shelf(12)). assign(robot(5),shelf(13)).
Answer: 100
assign(robot(1),shelf(1)). assign(robot(2),shelf(13)). assign(robot(3),shelf(15)). assign(robot(4),shelf(12)). assign(robot(5),shelf(14)).
Answer: 101
assign(robot(1),shelf(1)). assign(robot(2),shelf(12)). assign(robot(3),shelf(15)). assign(robot(4),shelf(14)). assign(robot(5),shelf(13)).
Answer: 102
assign(robot(1),shelf(1)). assign(robot(2),shelf(12)). assign(robot(3),shelf(15)). assign(robot(4),shelf(13)). assign(robot(5),shelf(14)).
Answer: 103
assign(robot(1),shelf(1)). assign(robot(2),shelf(14)). assign(robot(3),shelf(12)). assign(robot(4),shelf(13)). assign(robot(5),shelf(15)).
Answer: 104
assign(robot(1),shelf(1)). assign(robot(2),shelf(13)). assign(robot(3),shelf(12)). assign(robot(4),shelf(14)). assign(robot(5),shelf(15)).
Answer: 105
assign(robot(1),shelf(1)). assign(robot(2),shelf(14)). assign(robot(3),shelf(12)). assign(robot(4),shelf(15)). assign(robot(5),shelf(13)).
Answer: 106
assign(robot(1),shelf(1)). assign(robot(2),shelf(13)). assign(robot(3),shelf(12)). assign(robot(4),shelf(15)). assign(robot(5),shelf(14)).
Answer: 107
assign(robot(1),shelf(1)). assign(robot(2),shelf(15)). assign(robot(3),shelf(12)). assign(robot(4),shelf(14)). assign(robot(5),shelf(13)).
Answer: 108
assign(robot(1),shelf(1)). assign(robot(2),shelf(15)). assign(robot(3),shelf(12)). assign(robot(4),shelf(13)). assign(robot(5),shelf(14)).
Answer: 109
assign(robot(1),shelf(1)). assign(robot(2),shelf(13)). assign(robot(3),shelf(14)). assign(robot(4),shelf(12)). assign(robot(5),shelf(15)).
Answer: 110
assign(robot(1),shelf(1)). assign(robot(2),shelf(14)). assign(robot(3),shelf(13)). assign(robot(4),shelf(12)). assign(robot(5),shelf(15)).
Answer: 111
assign(robot(1),shelf(1)). assign(robot(2),shelf(12)). assign(robot(3),shelf(14)). assign(robot(4),shelf(13)). assign(robot(5),shelf(15)).
Answer: 112
assign(robot(1),shelf(1)). assign(robot(2),shelf(12)). assign(robot(3),shelf(13)). assign(robot(4),shelf(14)). assign(robot(5),shelf(15)).
Answer: 113
assign(robot(1),shelf(1)). assign(robot(2),shelf(13)). assign(robot(3),shelf(14)). assign(robot(4),shelf(15)). assign(robot(5),shelf(12)).
Answer: 114
assign(robot(1),shelf(1)). assign(robot(2),shelf(14)). assign(robot(3),shelf(13)). assign(robot(4),shelf(15)). assign(robot(5),shelf(12)).
Answer: 115
assign(robot(1),shelf(1)). assign(robot(2),shelf(12)). assign(robot(3),shelf(14)). assign(robot(4),shelf(15)). assign(robot(5),shelf(13)).
Answer: 116
assign(robot(1),shelf(1)). assign(robot(2),shelf(12)). assign(robot(3),shelf(13)). assign(robot(4),shelf(15)). assign(robot(5),shelf(14)).
Answer: 117
assign(robot(1),shelf(1)). assign(robot(2),shelf(15)). assign(robot(3),shelf(14)). assign(robot(4),shelf(12)). assign(robot(5),shelf(13)).
Answer: 118
assign(robot(1),shelf(1)). assign(robot(2),shelf(15)). assign(robot(3),shelf(13)). assign(robot(4),shelf(12)). assign(robot(5),shelf(14)).
Answer: 119
assign(robot(1),shelf(1)). assign(robot(2),shelf(15)). assign(robot(3),shelf(14)). assign(robot(4),shelf(13)). assign(robot(5),shelf(12)).
Answer: 120
assign(robot(1),shelf(1)). assign(robot(2),shelf(15)). assign(robot(3),shelf(13)). assign(robot(4),shelf(14)). assign(robot(5),shelf(12)).
SATISFIABLE

Models       : 120
Calls        : 1
Time         : 0.013s (Solving: 0.00s 1st Model: 0.00s Unsat: 0.00s)
CPU Time     : 0.012s

Choices      : 181     
Conflicts    : 27       (Analyzed: 25)
Restarts     : 0       
Model-Level  : 5.2     
Problems     : 1        (Average Length: 0.00 Splits: 0)
Lemmas       : 25       (Deleted: 0)
  Binary     : 0        (Ratio:   0.00%)
  Ternary    : 0        (Ratio:   0.00%)
  Conflict   : 25       (Average Length:    8.2 Ratio: 100.00%) 
  Loop       : 0        (Average Length:    0.0 Ratio:   0.00%) 
  Other      : 0        (Average Length:    0.0 Ratio:   0.00%) 
Backjumps    : 25       (Average:  2.40 Max:  11 Sum:     60)
  Executed   : 25       (Average:  2.40 Max:  11 Sum:     60 Ratio: 100.00%)
  Bounded    : 0        (Average:  0.00 Max:   0 Sum:      0 Ratio:   0.00%)

Rules        : 698      (Original: 554)
  Choice     : 80      
Atoms        : 508     
Bodies       : 191      (Original: 47)
  Count      : 5        (Original: 21)
Equivalences : 25       (Atom=Atom: 0 Body=Body: 0 Other: 25)
Tight        : Yes
Variables    : 85       (Eliminated:    0 Frozen:   80)
Constraints  : 170      (Binary:  94.1% Ternary:   0.0% Other:   5.9%)

